100 8
858 775
467 637
851 309
181 514
315 484
619 808
295 571
548 561
815 345
758 743
293 907
209 497
800 606
527 99
133 806
800 252
957 368
478 264
275 588
219 237
720 846
908 230
885 197
636 629
862 189
701 661
946 683
290 701
192 594
699 231
756 959
250 647
751 565
614 490
288 458
617 895
857 665
565 552
591 205
884 692
264 828
314 527
807 504
141 558
719 233
219 446
828 752
864 176
222 169
184 498
913 370
807 707
797 801
214 841
852 490
147 837
820 793
714 847
865 109
729 570
616 569
695 956
675 936
713 688
715 642
661 617
411 586
280 871
721 136
102 528
360 846
369 508
305 635
680 201
147 699
519 595
290 838
634 132
478 368
750 579
852 781
825 731
530 279
322 464
844 655
687 238
185 162
719 782
280 568
494 286
952 344
735 191
465 153
387 370
744 137
697 202
223 894
489 135
907 766
855 300
